NAME : Random_TSP_Instance
TYPE : TSP
DIMENSION : 20
EDGE_WEIGHT_TYPE : EXPLICIT
EDGE_WEIGHT_FORMAT : FULL_MATRIX
NODE_COORD_TYPE : NO_COORDS
DISPLAY_DATA_TYPE: TWOD_DISPLAY
EDGE_WEIGHT_SECTION
0.000000 1419989.274643 71.896287 1419989.274643 1419989.274643 1419989.274643 1419989.274643 1419989.274643 1419989.274643 1419989.274643 1419989.274643 1419989.274643 1419989.274643 1419989.274643 1419989.274643 1419989.274643 42.949582 1419989.274643 1419989.274643 1419989.274643
1419989.274643 0.000000 1419989.274643 1419989.274643 1419989.274643 1419989.274643 87.795874 1419989.274643 1419989.274643 1419989.274643 1419989.274643 1419989.274643 1419989.274643 1419989.274643 1419989.274643 1419989.274643 1419989.274643 1419989.274643 79.188535 1419989.274643
71.896287 1419989.274643 0.000000 1419989.274643 1419989.274643 96.207695 1419989.274643 1419989.274643 1419989.274643 1419989.274643 1419989.274643 1419989.274643 1419989.274643 1419989.274643 1419989.274643 1419989.274643 1419989.274643 1419989.274643 1419989.274643 1419989.274643
1419989.274643 1419989.274643 1419989.274643 0.000000 1419989.274643 1419989.274643 1419989.274643 1419989.274643 1419989.274643 1419989.274643 1419989.274643 30.078181 32.583461 1419989.274643 1419989.274643 1419989.274643 1419989.274643 1419989.274643 1419989.274643 1419989.274643
1419989.274643 1419989.274643 1419989.274643 1419989.274643 0.000000 100.728167 1419989.274643 1419989.274643 1419989.274643 1419989.274643 1419989.274643 1419989.274643 1419989.274643 1419989.274643 1419989.274643 1419989.274643 1419989.274643 1419989.274643 64.724916 1419989.274643
1419989.274643 1419989.274643 96.207695 1419989.274643 100.728167 0.000000 1419989.274643 1419989.274643 1419989.274643 1419989.274643 1419989.274643 1419989.274643 1419989.274643 1419989.274643 1419989.274643 1419989.274643 1419989.274643 1419989.274643 1419989.274643 1419989.274643
1419989.274643 87.795874 1419989.274643 1419989.274643 1419989.274643 1419989.274643 0.000000 1419989.274643 1419989.274643 1419989.274643 1419989.274643 41.477995 1419989.274643 1419989.274643 1419989.274643 1419989.274643 1419989.274643 1419989.274643 1419989.274643 1419989.274643
1419989.274643 1419989.274643 1419989.274643 1419989.274643 1419989.274643 1419989.274643 1419989.274643 0.000000 1419989.274643 1419989.274643 87.662365 1419989.274643 1419989.274643 1419989.274643 35.348619 1419989.274643 1419989.274643 1419989.274643 1419989.274643 1419989.274643
1419989.274643 1419989.274643 1419989.274643 1419989.274643 1419989.274643 1419989.274643 1419989.274643 1419989.274643 0.000000 1419989.274643 1419989.274643 1419989.274643 1419989.274643 1419989.274643 52.621928 1419989.274643 1419989.274643 82.399856 1419989.274643 1419989.274643
1419989.274643 1419989.274643 1419989.274643 1419989.274643 1419989.274643 1419989.274643 1419989.274643 1419989.274643 1419989.274643 0.000000 1419989.274643 1419989.274643 1419989.274643 1419989.274643 1419989.274643 1419989.274643 56.685815 1419989.274643 1419989.274643 51.252383
1419989.274643 1419989.274643 1419989.274643 1419989.274643 1419989.274643 1419989.274643 1419989.274643 87.662365 1419989.274643 1419989.274643 0.000000 1419989.274643 41.307734 1419989.274643 1419989.274643 1419989.274643 1419989.274643 1419989.274643 1419989.274643 1419989.274643
1419989.274643 1419989.274643 1419989.274643 30.078181 1419989.274643 1419989.274643 41.477995 1419989.274643 1419989.274643 1419989.274643 1419989.274643 0.000000 1419989.274643 1419989.274643 1419989.274643 1419989.274643 1419989.274643 1419989.274643 1419989.274643 1419989.274643
1419989.274643 1419989.274643 1419989.274643 32.583461 1419989.274643 1419989.274643 1419989.274643 1419989.274643 1419989.274643 1419989.274643 41.307734 1419989.274643 0.000000 1419989.274643 1419989.274643 1419989.274643 1419989.274643 1419989.274643 1419989.274643 1419989.274643
1419989.274643 1419989.274643 1419989.274643 1419989.274643 1419989.274643 1419989.274643 1419989.274643 1419989.274643 1419989.274643 1419989.274643 1419989.274643 1419989.274643 1419989.274643 0.000000 1419989.274643 91.711527 1419989.274643 79.483340 1419989.274643 1419989.274643
1419989.274643 1419989.274643 1419989.274643 1419989.274643 1419989.274643 1419989.274643 1419989.274643 35.348619 52.621928 1419989.274643 1419989.274643 1419989.274643 1419989.274643 1419989.274643 0.000000 1419989.274643 1419989.274643 1419989.274643 1419989.274643 1419989.274643
1419989.274643 1419989.274643 1419989.274643 1419989.274643 1419989.274643 1419989.274643 1419989.274643 1419989.274643 1419989.274643 1419989.274643 1419989.274643 1419989.274643 1419989.274643 91.711527 1419989.274643 0.000000 1419989.274643 1419989.274643 1419989.274643 50.113765
42.949582 1419989.274643 1419989.274643 1419989.274643 1419989.274643 1419989.274643 1419989.274643 1419989.274643 1419989.274643 56.685815 1419989.274643 1419989.274643 1419989.274643 1419989.274643 1419989.274643 1419989.274643 0.000000 1419989.274643 1419989.274643 1419989.274643
1419989.274643 1419989.274643 1419989.274643 1419989.274643 1419989.274643 1419989.274643 1419989.274643 1419989.274643 82.399856 1419989.274643 1419989.274643 1419989.274643 1419989.274643 79.483340 1419989.274643 1419989.274643 1419989.274643 0.000000 1419989.274643 1419989.274643
1419989.274643 79.188535 1419989.274643 1419989.274643 64.724916 1419989.274643 1419989.274643 1419989.274643 1419989.274643 1419989.274643 1419989.274643 1419989.274643 1419989.274643 1419989.274643 1419989.274643 1419989.274643 1419989.274643 1419989.274643 0.000000 1419989.274643
1419989.274643 1419989.274643 1419989.274643 1419989.274643 1419989.274643 1419989.274643 1419989.274643 1419989.274643 1419989.274643 51.252383 1419989.274643 1419989.274643 1419989.274643 1419989.274643 1419989.274643 50.113765 1419989.274643 1419989.274643 1419989.274643 0.000000
EOF
